SLURM_JOB_ID: 60704415
SLURM_JOB_USER: vsc34888
SLURM_JOB_ACCOUNT: lp_elect_gen_modeling
SLURM_JOB_NAME: 9n_full_MILP
SLURM_CLUSTER_NAME: wice
SLURM_JOB_PARTITION: batch
SLURM_NNODES: 1
SLURM_NODELIST: r33c30n2
SLURM_JOB_CPUS_PER_NODE: 36
Date: Sat Sep 23 12:20:45 CEST 2023
Walltime: 03-00:00:00
========================================================================
Activation OK
Starting runs

 #### Academic research license - for non-commercial use only #### 

9n
/vsc-hard-mounts/leuven-data/348/vsc34888/JointResearch/05.Models/06.Benchmarking/A.The_full_year_MILP
gurobi
['oSN_Main_v2.py', '--case', '9n']
Namespace(case='9n', dir='/vsc-hard-mounts/leuven-data/348/vsc34888/JointResearch/05.Models/06.Benchmarking/A.The_full_year_MILP', solver='gurobi')
Namespace(case='9n', dir='/vsc-hard-mounts/leuven-data/348/vsc34888/JointResearch/05.Models/06.Benchmarking/A.The_full_year_MILP', solver='gurobi')
Reading    input data                 ...  0 s
Setting up input data                 ...  17 s
Generating objective function         ...  3 s
Generating operation & investment     ...  0 s
Generating balance                    ...  34 s
Generating storage operation          ...  0 s
Generating generation commitment      ...  9 s
Generating generation capacity        ...  2 s
Generating net P capacity bounds      ...  26 s
Generating net Q capacity bounds      ...  22 s
Generating net P constraints          ...  88 s
Generating net Q constraints          ...  91 s
Generating net voltage bounds         ...  1 s
Generating net non negative losses    ...  4 s
Generating net linear SOC2            ...  10 s
Generating net gshb injection         ...  0 s
Generating net bshb injection         ...  0 s
Econometric analysis  constraints     ...  0 s
Writing LP file                       ...  379 s
Set parameter Username
Set parameter TokenServer to value "SET-S-ME-LM3.luna.kuleuven.be"
Read LP format model from file /tmp/tmpqog1j0jh.pyomo.lp
Reading time = 25.68 seconds
x1: 8229315 rows, 2843911 columns, 27693754 nonzeros
Set parameter QCPDual to value 1
Set parameter LogFile to value "/vsc-hard-mounts/leuven-data/348/vsc34888/JointResearch/05.Models/06.Benchmarking/A.The_full_year_MILP/9n/openStarNet_9n.log"
Set parameter Method to value 2
Set parameter MIPFocus to value 1
Set parameter Presolve to value 2
Set parameter RINS to value 100
Set parameter MIPGap to value 0.01
Set parameter Threads to value 72
Set parameter TimeLimit to value 604800
Set parameter IterationLimit to value 760000000
Gurobi Optimizer version 9.5.0 build v9.5.0rc5 (linux64)
Thread count: 72 physical cores, 72 logical processors, using up to 72 threads
Optimize a model with 8229315 rows, 2843911 columns and 27693754 nonzeros
Model fingerprint: 0x75175e4b
Variable types: 2843875 continuous, 36 integer (36 binary)
Coefficient statistics:
  Matrix range     [4e-04, 2e+02]
  Objective range  [1e+00, 1e+00]
  Bounds range     [4e-04, 2e+00]
  RHS range        [4e-04, 2e+00]
Presolve removed 550384 rows and 209694 columns (presolve time = 5s) ...
Presolve removed 1389040 rows and 209694 columns (presolve time = 11s) ...
Presolve removed 1808368 rows and 323249 columns (presolve time = 15s) ...
Presolve removed 2026755 rows and 541636 columns (presolve time = 20s) ...
Presolve removed 2026755 rows and 541636 columns (presolve time = 25s) ...
Presolve removed 2026755 rows and 541636 columns (presolve time = 30s) ...
Presolve removed 2026755 rows and 541636 columns (presolve time = 36s) ...
Presolve removed 2026755 rows and 541636 columns (presolve time = 40s) ...
Presolve removed 2026755 rows and 541636 columns (presolve time = 45s) ...
Presolve removed 2026755 rows and 541636 columns (presolve time = 50s) ...
Presolve removed 2026755 rows and 541636 columns (presolve time = 55s) ...
Presolve removed 2026755 rows and 541636 columns (presolve time = 62s) ...
Presolve removed 2026755 rows and 541636 columns (presolve time = 67s) ...
Presolve removed 2026755 rows and 541636 columns (presolve time = 71s) ...
Presolve removed 2026755 rows and 541636 columns
Presolve time: 74.17s
Presolved: 6202560 rows, 2302275 columns, 22377567 nonzeros
Variable types: 2302239 continuous, 36 integer (36 binary)
Root relaxation presolve removed 0 rows and 0 columns (presolve time = 6s) ...
Root relaxation presolve removed 0 rows and 0 columns (presolve time = 10s) ...
Root relaxation presolve removed 0 rows and 0 columns (presolve time = 15s) ...
Root relaxation presolve removed 0 rows and 0 columns (presolve time = 21s) ...
Root relaxation presolved: 6202560 rows, 2302275 columns, 22377567 nonzeros

Root barrier log...

Ordering time: 2.91s

Barrier statistics:
 Dense cols : 36
 AA' NZ     : 1.211e+08
 Factor NZ  : 2.282e+08 (roughly 5.0 GB of memory)
 Factor Ops : 1.540e+10 (roughly 1 second per iteration)
 Threads    : 71

                  Objective                Residual
Iter       Primal          Dual         Primal    Dual     Compl     Time
   0   1.10264910e+06 -1.71112897e+08  2.58e+01 1.27e+00  4.89e+01   150s
   1   2.38704872e+05 -5.08553423e+07  3.00e+00 1.54e-01  6.97e+00   154s
   2   8.82514580e+04 -6.41884049e+06  1.37e-01 6.02e-08  6.60e-01   159s
   3   2.44743440e+04 -1.14664800e+06  1.51e-02 4.99e-09  1.15e-01   165s
   4   3.66822918e+03 -4.57157902e+04  2.00e-05 1.74e-10  4.81e-03   170s
   5   2.90835790e+03 -1.57058923e+04  1.12e-05 6.00e-11  1.81e-03   173s
   6   1.98001031e+03 -4.34697747e+03  5.06e-06 1.58e-11  6.16e-04   177s
   7   1.17195330e+03 -1.09281800e+03  1.85e-06 4.48e-12  2.21e-04   180s
   8   6.71167048e+02 -1.31161326e+02  3.97e-07 1.98e-12  7.82e-05   185s
   9   5.18204525e+02  1.90612914e+02  1.43e-07 8.53e-13  3.19e-05   189s
  10   4.41869013e+02  3.48205559e+02  4.65e-08 1.20e-12  9.12e-06   192s
  11   4.39305044e+02  3.76616474e+02  4.37e-08 1.48e-12  6.11e-06   197s
  12   4.12735103e+02  3.84566038e+02  1.38e-08 6.04e-13  2.74e-06   202s
  13   4.12351306e+02  3.86637620e+02  1.34e-08 6.18e-13  2.50e-06   206s
  14   4.12131200e+02  3.87670200e+02  1.31e-08 6.11e-13  2.38e-06   211s
  15   4.10296626e+02  3.88457213e+02  1.13e-08 5.04e-13  2.13e-06   216s
  16   4.09316458e+02  3.89886144e+02  1.02e-08 5.24e-13  1.89e-06   223s
  17   4.08953884e+02  3.90302819e+02  9.80e-09 4.44e-13  1.82e-06   227s
  18   4.07391744e+02  3.91010285e+02  8.09e-09 6.86e-13  1.60e-06   234s
  19   4.05452513e+02  3.92128233e+02  5.95e-09 2.88e-13  1.30e-06   240s
  20   4.03722268e+02  3.93055725e+02  3.93e-09 6.25e-13  1.04e-06   247s
  21   4.03139389e+02  3.94083991e+02  3.27e-09 4.26e-13  8.82e-07   253s
  22   4.02696150e+02  3.94772702e+02  2.75e-09 6.75e-13  7.72e-07   259s
  23   4.02475482e+02  3.95099407e+02  2.50e-09 1.32e-12  7.19e-07   266s
  24   4.02043458e+02  3.95573970e+02  2.01e-09 1.08e-12  6.30e-07   274s
  25   4.01573272e+02  3.96136229e+02  1.48e-09 1.13e-12  5.30e-07   280s
  26   4.01393569e+02  3.96588108e+02  1.28e-09 6.82e-13  4.68e-07   287s
  27   4.01178657e+02  3.97117172e+02  1.06e-09 7.67e-13  3.96e-07   295s
  28   4.00980983e+02  3.97349426e+02  3.20e-09 1.22e-12  3.54e-07   303s
  29   4.00814648e+02  3.97664668e+02  2.90e-09 1.13e-12  3.07e-07   312s
  30   4.00727814e+02  3.97778810e+02  3.76e-09 2.10e-12  2.87e-07   322s
  31   4.00633245e+02  3.97968960e+02  3.32e-09 9.20e-13  2.60e-07   332s
  32   4.00471247e+02  3.98242597e+02  2.47e-09 1.28e-12  2.17e-07   342s
  33   4.00427472e+02  3.98662269e+02  2.20e-09 3.59e-13  1.72e-07   357s
  34   4.00412346e+02  3.98731521e+02  2.02e-09 1.65e-12  1.64e-07   376s
  35   4.00365261e+02  3.98795766e+02  3.59e-09 8.85e-13  1.53e-07   404s
  36   4.00328329e+02  3.98970382e+02  2.90e-09 6.61e-13  1.32e-07   426s
  37   4.00298615e+02  3.99097871e+02  1.75e-09 9.59e-13  1.17e-07   451s
  38   4.00279533e+02  3.99240230e+02  4.23e-09 1.08e-12  1.01e-07   478s
  39   4.00266900e+02  3.99433926e+02  3.63e-09 6.18e-13  8.11e-08   505s
  40   4.00257176e+02  3.99515365e+02  4.42e-09 5.36e-13  7.23e-08   524s
  41   4.00253266e+02  3.99964503e+02  4.99e-09 2.70e-13  2.81e-08   545s
  42   4.00245849e+02  4.00168070e+02  1.21e-08 7.25e-13  7.58e-09   567s
  43   4.00243270e+02  4.00191075e+02  9.66e-09 6.04e-13  5.08e-09   578s
  44   4.00242333e+02  4.00194525e+02  5.35e-09 7.03e-13  4.66e-09   592s
  45   4.00241655e+02  4.00221016e+02  2.01e-09 7.74e-13  2.01e-09   599s
  46   4.00241064e+02  4.00237260e+02  6.70e-10 1.79e-12  3.71e-10   604s
  47   4.00240962e+02  4.00237306e+02  1.75e-10 1.09e-12  3.56e-10   613s
  48   4.00240954e+02  4.00240901e+02  2.57e-09 1.46e-12  5.18e-12   617s
  49   4.00240952e+02  4.00240915e+02  9.32e-09 1.73e-12  3.60e-12   623s
  50   4.00240952e+02  4.00240915e+02  9.32e-09 1.57e-12  3.59e-12   631s
  51   4.00240952e+02  4.00240916e+02  1.12e-08 1.91e-12  3.51e-12   637s
  52   4.00240952e+02  4.00240919e+02  1.48e-08 8.14e-13  3.20e-12   643s

Barrier solved model in 52 iterations and 643.11 seconds (429.07 work units)
Optimal objective 4.00240952e+02


Root crossover log...

 5013044 variables added to crossover basis                      645s

  928216 DPushes remaining with DInf 0.0000000e+00               647s
     220 DPushes remaining with DInf 0.0000000e+00               651s
       0 DPushes remaining with DInf 0.0000000e+00               652s

  643964 PPushes remaining with PInf 0.0000000e+00               653s
  266766 PPushes remaining with PInf 0.0000000e+00               656s
   94925 PPushes remaining with PInf 0.0000000e+00               662s
   67620 PPushes remaining with PInf 0.0000000e+00               665s
   44714 PPushes remaining with PInf 0.0000000e+00               671s
   28733 PPushes remaining with PInf 0.0000000e+00               678s
   16782 PPushes remaining with PInf 0.0000000e+00               685s
    8329 PPushes remaining with PInf 0.0000000e+00               692s
    3656 PPushes remaining with PInf 0.0000000e+00               697s
    1404 PPushes remaining with PInf 0.0000000e+00               703s
       0 PPushes remaining with PInf 0.0000000e+00               712s

  Push phase complete: Pinf 0.0000000e+00, Dinf 1.3906160e-11    713s


Root simplex log...

Iteration    Objective       Primal Inf.    Dual Inf.      Time
  962588    4.0024095e+02   0.000000e+00   0.000000e+00    762s
  962588    4.0024095e+02   0.000000e+00   0.000000e+00    815s

Root relaxation: objective 4.002409e+02, 962588 iterations, 708.61 seconds (504.42 work units)

    Nodes    |    Current Node    |     Objective Bounds      |     Work
 Expl Unexpl |  Obj  Depth IntInf | Incumbent    BestBd   Gap | It/Node Time

     0     0  400.24095    0    6          -  400.24095      -     -  818s
H    0     0                    1513.0781028  400.24095  73.5%     - 1111s
     0     0  408.40721    0    1 1513.07810  408.40721  73.0%     - 4568s
H    0     0                     409.9898919  408.40721  0.39%     - 4772s

Cutting planes:
  MIR: 8391
  RLT: 1052
  Relax-and-lift: 10041

Explored 1 nodes (1107457 simplex iterations) in 4772.77 seconds (5632.12 work units)
Thread count was 72 (of 72 available processors)

Solution count 2: 409.99 1513.08 

Optimal solution found (tolerance 1.00e-02)
Best objective 4.099898918864e+02, best bound 4.084072063497e+02, gap 0.3860%
Termination condition:  optimal
# ==========================================================
# = Solver Results                                         =
# ==========================================================
# ----------------------------------------------------------
#   Problem Information
# ----------------------------------------------------------
Problem: 
- Name: x1
  Lower bound: 408.4072063497182
  Upper bound: 409.98989188637404
  Number of objectives: 1
  Number of constraints: 8229315
  Number of variables: 2843911
  Number of binary variables: 36
  Number of integer variables: 36
  Number of continuous variables: 2843875
  Number of nonzeros: 27693754
  Sense: minimize
# ----------------------------------------------------------
#   Solver Information
# ----------------------------------------------------------
Solver: 
- Status: ok
  Return code: 0
  Message: Model was solved to optimality (subject to tolerances), and an optimal solution is available.
  Termination condition: optimal
  Termination message: Model was solved to optimality (subject to tolerances), and an optimal solution is available.
  Wall time: 4772.895947933197
  Error rc: 0
  Time: 4822.356010198593
# ----------------------------------------------------------
#   Solution Information
# ----------------------------------------------------------
Solution: 
- number of solutions: 0
  number of solutions displayed: 0
# ============================================================================= #
# ============================================================================= #
fixing: vNetworkInvest[2030,Node_4,Node_9,cac1]
fixing: vNetworkInvest[2030,Node_6,Node_8,cac2]
fixing: vNetworkInvest[2030,Node_3,Node_4,cac1]
fixing: vNetworkInvest[2030,Node_6,Node_8,cac3]
fixing: vNetworkInvest[2030,Node_2,Node_3,cac2]
fixing: vNetworkInvest[2030,Node_4,Node_6,cac2]
fixing: vNetworkInvest[2030,Node_2,Node_3,cac3]
fixing: vNetworkInvest[2030,Node_4,Node_6,cac3]
fixing: vNetworkInvest[2030,Node_4,Node_5,cac1]
fixing: vNetworkInvest[2030,Node_6,Node_7,cac1]
fixing: vNetworkInvest[2030,Node_3,Node_4,cac2]
fixing: vNetworkInvest[2030,Node_4,Node_9,cac2]
fixing: vNetworkInvest[2030,Node_3,Node_6,cac1]
fixing: vNetworkInvest[2030,Node_3,Node_4,cac3]
fixing: vNetworkInvest[2030,Node_4,Node_9,cac3]
fixing: vNetworkInvest[2030,Node_8,Node_9,cac1]
fixing: vNetworkInvest[2030,Node_7,Node_8,cac3]
fixing: vNetworkInvest[2030,Node_4,Node_5,cac2]
fixing: vNetworkInvest[2030,Node_4,Node_5,cac3]
fixing: vNetworkInvest[2030,Node_6,Node_7,cac2]
fixing: vNetworkInvest[2030,Node_1,Node_6,cac1]
fixing: vNetworkInvest[2030,Node_3,Node_6,cac2]
fixing: vNetworkInvest[2030,Node_6,Node_7,cac3]
fixing: vNetworkInvest[2030,Node_3,Node_6,cac3]
fixing: vNetworkInvest[2030,Node_2,Node_6,cac1]
fixing: vNetworkInvest[2030,Node_7,Node_8,cac1]
fixing: vNetworkInvest[2030,Node_8,Node_9,cac2]
fixing: vNetworkInvest[2030,Node_8,Node_9,cac3]
fixing: vNetworkInvest[2030,Node_6,Node_8,cac1]
fixing: vNetworkInvest[2030,Node_4,Node_6,cac1]
fixing: vNetworkInvest[2030,Node_1,Node_6,cac2]
fixing: vNetworkInvest[2030,Node_2,Node_3,cac1]
fixing: vNetworkInvest[2030,Node_2,Node_6,cac2]
fixing: vNetworkInvest[2030,Node_7,Node_8,cac2]
fixing: vNetworkInvest[2030,Node_1,Node_6,cac3]
fixing: vNetworkInvest[2030,Node_2,Node_6,cac3]
Number of fixed variables:  36
# ============================================================================= #
# ============================================================================= #
WARNING: Implicitly replacing the Component attribute dual (type=<class
'pyomo.core.base.suffix.Suffix'>) on block 'openStarNet - Open Version of the
StartNetLite Model (Long Term Transmission Expansion Planning) - Version 1.0.0
- January 16, 2023' with a new Component (type=<class
'pyomo.core.base.suffix.Suffix'>). This is usually indicative of a modelling
error. To avoid this warning, use block.del_component() and
block.add_component().
WARNING: Implicitly replacing the Component attribute rc (type=<class
'pyomo.core.base.suffix.Suffix'>) on block 'openStarNet - Open Version of the
StartNetLite Model (Long Term Transmission Expansion Planning) - Version 1.0.0
- January 16, 2023' with a new Component (type=<class
'pyomo.core.base.suffix.Suffix'>). This is usually indicative of a modelling
error. To avoid this warning, use block.del_component() and
block.add_component().
# ==========================================================
# = Solver Results                                         =
# ==========================================================
# ----------------------------------------------------------
#   Problem Information
# ----------------------------------------------------------
Problem: 
- Name: x1
  Lower bound: 409.98989188637614
  Upper bound: 409.98989188637614
  Number of objectives: 1
  Number of constraints: 8229315
  Number of variables: 2843875
  Number of binary variables: 0
  Number of integer variables: 0
  Number of continuous variables: 2843875
  Number of nonzeros: 22661782
  Sense: minimize
# ----------------------------------------------------------
#   Solver Information
# ----------------------------------------------------------
Solver: 
- Status: ok
  Return code: 0
  Message: Model was solved to optimality (subject to tolerances), and an optimal solution is available.
  Termination condition: optimal
  Termination message: Model was solved to optimality (subject to tolerances), and an optimal solution is available.
  Wall time: 164.7283079624176
  Error rc: 0
  Time: 238.11997437477112
# ----------------------------------------------------------
#   Solution Information
# ----------------------------------------------------------
Solution: 
- number of solutions: 0
  number of solutions displayed: 0
Solving                               ...  5594 s
Objective function value                   409.99 M€
Objective function value                   409.98989188637614
Writing         cost summary results  ...  0 s
Writing           investment results  ...  0 s
Writing       energy balance results  ...  27 s
Writing    network operation results  ...  12 s
Writing generation operation results  ...  6 s
Writing        ESS operation results  ...  0 s
Writing             economic results  ...  1 s

 #### Academic research license - for non-commercial use only #### 

Elapsed time: 6346 seconds
